jobs  (incl. supersource/sink ):	102
RESOURCES
- renewable                 : 4 R
- nonrenewable              : 4 N
- doubly constrained        : 0 D
************************************************************************
PRECEDENCE RELATIONS:
jobnr.    #modes  #successors   successors
1	1	20		2 3 4 5 6 7 8 9 10 11 12 14 18 19 20 21 23 25 27 28 
2	6	8		54 36 33 30 26 24 16 13 
3	6	9		43 42 40 36 35 33 30 26 13 
4	6	10		55 54 45 44 43 40 39 31 29 15 
5	6	10		54 46 43 42 38 37 36 35 31 26 
6	6	8		66 46 44 39 35 29 24 22 
7	6	8		66 53 48 46 44 37 32 17 
8	6	10		67 62 61 50 46 39 37 35 30 26 
9	6	8		61 50 46 40 35 34 30 26 
10	6	7		54 46 42 39 37 36 24 
11	6	10		67 66 61 55 49 46 45 37 36 30 
12	6	8		63 57 55 54 51 46 35 24 
13	6	14		101 73 70 67 66 57 56 55 53 50 46 45 44 37 
14	6	12		73 62 60 56 54 52 51 47 46 45 44 31 
15	6	6		67 61 46 36 35 30 
16	6	11		65 62 61 58 57 53 52 50 44 40 35 
17	6	10		101 62 61 56 55 51 47 45 41 29 
18	6	10		67 61 55 52 51 47 46 45 36 35 
19	6	9		101 74 55 49 48 46 45 43 37 
20	6	9		101 64 56 55 54 51 45 44 29 
21	6	8		67 64 52 51 47 44 36 35 
22	6	13		73 70 63 62 57 55 54 53 52 50 49 45 40 
23	6	12		101 74 73 70 67 61 57 56 49 46 45 37 
24	6	15		101 74 73 70 67 64 62 61 60 53 50 49 48 47 45 
25	6	12		101 100 74 73 70 67 62 58 55 53 50 37 
26	6	14		101 100 79 73 70 60 59 57 55 53 51 48 47 44 
27	6	15		100 79 73 70 63 62 61 60 58 56 54 51 50 49 47 
28	6	13		101 100 73 65 64 60 58 57 52 50 49 48 46 
29	6	14		100 81 79 74 73 70 67 65 63 60 58 57 50 49 
30	6	11		70 69 64 60 59 58 57 52 51 48 47 
31	6	14		100 99 98 82 81 79 71 70 67 64 58 57 53 50 
32	6	13		101 100 99 97 81 76 74 70 63 61 56 50 49 
33	6	12		101 82 81 79 72 67 65 62 60 59 53 48 
34	6	11		100 79 72 70 69 60 59 57 54 49 48 
35	6	14		100 99 97 81 79 74 73 72 70 69 60 59 56 49 
36	6	13		101 100 99 98 81 79 74 73 68 62 60 57 50 
37	6	8		69 68 64 60 59 52 51 47 
38	6	14		99 81 79 73 72 70 69 68 64 62 60 59 58 57 
39	6	13		101 100 99 97 94 81 74 72 65 59 58 56 49 
40	6	12		101 100 98 82 79 72 69 68 67 64 60 51 
41	6	11		100 99 97 94 72 69 60 59 58 54 49 
42	6	12		100 97 82 81 79 72 70 68 65 62 61 56 
43	6	12		99 82 81 78 75 73 71 70 68 64 62 59 
44	6	8		97 81 80 76 74 72 63 49 
45	6	12		100 99 98 97 95 94 82 81 78 71 68 58 
46	6	12		99 96 95 90 82 81 80 79 76 71 69 68 
47	6	9		97 96 95 94 81 78 75 72 65 
48	6	5		99 94 92 80 56 
49	6	10		98 96 95 93 90 82 78 75 71 68 
50	6	5		80 75 72 69 59 
51	6	12		99 96 94 93 92 90 86 81 80 77 75 71 
52	6	10		98 97 91 86 82 79 78 77 75 72 
53	6	9		97 95 94 90 89 80 75 69 68 
54	6	12		96 95 93 92 91 90 88 81 80 78 77 76 
55	6	7		94 93 90 80 76 71 68 
56	6	11		98 96 95 93 91 90 89 86 78 77 75 
57	6	12		97 95 94 93 92 91 90 89 88 86 80 77 
58	6	8		96 93 91 90 80 77 76 75 
59	6	10		96 95 93 91 90 89 87 86 85 77 
60	6	6		93 92 88 80 76 71 
61	6	9		95 94 93 91 90 88 87 85 77 
62	6	10		94 93 92 90 88 87 86 85 84 83 
63	6	8		98 96 94 91 90 88 86 77 
64	6	7		97 96 93 88 84 83 76 
65	6	4		93 92 77 76 
66	6	6		91 89 87 85 81 77 
67	6	5		95 94 85 77 75 
68	6	5		92 88 86 85 77 
69	6	5		92 91 86 83 78 
70	6	3		90 89 77 
71	6	4		91 89 85 83 
72	6	4		92 90 84 83 
73	6	4		94 87 84 83 
74	6	4		92 87 86 83 
75	6	3		88 84 83 
76	6	3		89 86 85 
77	6	2		84 83 
78	6	2		87 85 
79	6	2		94 89 
80	6	1		87 
81	6	1		83 
82	6	1		88 
83	6	1		102 
84	6	1		102 
85	6	1		102 
86	6	1		102 
87	6	1		102 
88	6	1		102 
89	6	1		102 
90	6	1		102 
91	6	1		102 
92	6	1		102 
93	6	1		102 
94	6	1		102 
95	6	1		102 
96	6	1		102 
97	6	1		102 
98	6	1		102 
99	6	1		102 
100	6	1		102 
101	6	1		102 
102	1	0		
************************************************************************
REQUESTS/DURATIONS
jobnr.	mode	dur	R1	R2	R3	R4	N1	N2	N3	N4	
------------------------------------------------------------------------
1	1	0	0	0	0	0	0	0	0	0	
2	1	6	3	3	2	4	20	23	6	16	
	2	7	3	3	2	4	19	23	6	16	
	3	8	3	3	2	4	18	21	5	15	
	4	18	3	2	2	4	13	20	3	13	
	5	26	3	2	2	4	11	20	3	12	
	6	29	3	1	2	4	10	18	2	11	
3	1	13	1	4	3	5	25	28	16	13	
	2	19	1	4	2	5	24	26	16	12	
	3	23	1	4	2	5	24	24	16	12	
	4	27	1	3	2	5	24	24	16	12	
	5	28	1	2	1	5	24	22	16	12	
	6	29	1	2	1	5	24	22	16	11	
4	1	2	4	2	5	5	29	26	27	4	
	2	3	4	1	4	4	28	22	27	3	
	3	4	4	1	4	4	27	20	27	3	
	4	5	4	1	4	3	26	18	26	2	
	5	6	3	1	3	3	24	14	25	2	
	6	24	3	1	3	3	22	13	25	1	
5	1	11	1	4	3	4	16	15	17	21	
	2	12	1	3	2	4	14	14	15	21	
	3	19	1	3	2	4	12	13	13	19	
	4	22	1	2	2	4	10	12	12	16	
	5	26	1	1	1	4	9	11	12	15	
	6	30	1	1	1	4	9	11	9	12	
6	1	3	4	5	3	4	25	19	28	18	
	2	4	3	4	3	4	23	19	23	17	
	3	8	3	3	3	4	22	18	21	14	
	4	10	3	3	3	4	19	16	17	12	
	5	19	2	2	3	3	17	14	16	9	
	6	20	2	2	3	3	16	14	10	6	
7	1	6	4	2	5	1	16	30	19	25	
	2	7	4	2	4	1	12	28	15	22	
	3	10	4	2	4	1	10	27	15	20	
	4	11	3	2	3	1	7	26	13	19	
	5	24	3	2	2	1	6	26	9	15	
	6	25	2	2	2	1	3	25	9	11	
8	1	1	3	4	4	5	20	24	25	18	
	2	9	3	4	4	3	15	21	21	15	
	3	17	3	4	4	3	12	19	21	13	
	4	19	3	3	4	2	9	16	16	10	
	5	22	3	2	3	1	6	15	13	8	
	6	23	3	2	3	1	5	13	9	6	
9	1	3	2	2	4	2	12	18	13	13	
	2	9	2	2	3	2	9	17	13	13	
	3	11	2	2	3	2	9	13	11	11	
	4	18	1	1	2	2	7	10	11	10	
	5	24	1	1	2	2	6	8	9	10	
	6	28	1	1	1	2	5	6	8	8	
10	1	1	5	5	5	4	15	11	24	23	
	2	2	4	4	5	3	12	9	22	23	
	3	22	3	4	5	3	10	8	19	18	
	4	23	3	3	5	3	7	8	17	16	
	5	29	1	3	5	3	6	6	14	15	
	6	30	1	3	5	3	3	5	9	10	
11	1	2	3	3	3	4	11	24	27	8	
	2	6	2	3	2	4	10	22	23	8	
	3	7	2	3	2	4	10	20	18	8	
	4	14	2	3	1	4	9	17	15	8	
	5	16	2	2	1	4	8	12	12	8	
	6	23	2	2	1	4	8	12	10	8	
12	1	5	4	5	3	5	16	29	24	9	
	2	6	3	5	3	4	14	28	22	7	
	3	10	3	5	3	4	14	24	18	7	
	4	12	3	5	3	3	12	22	13	5	
	5	28	3	5	3	2	11	20	6	5	
	6	30	3	5	3	2	11	20	3	3	
13	1	6	4	3	3	5	29	16	9	24	
	2	8	4	2	2	5	28	16	9	22	
	3	13	3	2	2	5	28	15	7	19	
	4	14	3	1	2	5	27	13	7	18	
	5	15	2	1	2	5	27	13	6	13	
	6	20	1	1	2	5	26	12	5	13	
14	1	3	4	4	5	3	21	25	24	29	
	2	16	3	4	4	3	21	21	22	28	
	3	17	3	4	4	3	21	17	20	27	
	4	19	3	4	4	3	21	11	16	26	
	5	22	2	4	4	2	21	6	15	25	
	6	24	2	4	4	2	21	6	11	23	
15	1	4	4	3	5	5	29	23	28	22	
	2	5	3	2	4	4	27	22	24	21	
	3	8	3	2	4	4	27	22	21	21	
	4	14	2	1	4	4	26	20	20	19	
	5	20	2	1	4	3	24	20	19	17	
	6	24	2	1	4	3	23	19	17	16	
16	1	5	4	2	3	2	23	16	24	30	
	2	17	3	2	3	1	23	16	21	23	
	3	19	3	2	3	1	23	16	19	21	
	4	23	3	2	2	1	23	15	14	17	
	5	25	2	2	2	1	23	15	6	14	
	6	26	2	2	2	1	23	14	3	8	
17	1	6	3	5	3	5	13	10	2	23	
	2	10	2	4	3	4	13	9	1	21	
	3	11	2	4	3	4	9	9	1	17	
	4	15	2	4	3	4	8	8	1	16	
	5	23	2	3	2	4	5	5	1	9	
	6	27	2	3	2	4	3	5	1	7	
18	1	7	3	4	4	3	26	27	26	20	
	2	15	3	4	4	2	23	20	24	19	
	3	16	3	4	4	2	17	17	23	18	
	4	17	3	4	4	1	15	12	23	17	
	5	22	3	4	3	1	11	7	22	16	
	6	24	3	4	3	1	9	3	21	15	
19	1	5	1	5	3	2	29	13	6	12	
	2	7	1	4	3	2	26	12	6	11	
	3	16	1	3	3	2	25	11	6	11	
	4	26	1	3	3	2	24	10	6	10	
	5	27	1	3	2	2	22	9	6	9	
	6	30	1	2	2	2	20	8	6	8	
20	1	4	3	2	3	4	9	26	9	20	
	2	19	2	2	3	3	9	22	9	16	
	3	23	2	2	3	3	9	20	9	15	
	4	26	1	2	3	3	8	14	9	14	
	5	29	1	2	2	3	7	11	9	10	
	6	30	1	2	2	3	7	9	9	9	
21	1	2	2	5	5	3	13	21	17	14	
	2	8	2	4	4	2	12	18	11	14	
	3	21	2	4	4	2	11	15	10	10	
	4	22	2	4	4	2	11	13	8	10	
	5	25	2	4	4	2	10	11	5	7	
	6	27	2	4	4	2	10	10	2	4	
22	1	2	5	4	4	3	23	27	21	27	
	2	3	4	4	3	2	19	23	19	26	
	3	13	4	4	2	2	17	17	18	24	
	4	15	4	4	2	1	10	12	16	23	
	5	20	3	4	2	1	10	8	15	23	
	6	26	3	4	1	1	2	5	14	20	
23	1	6	4	4	1	4	22	25	18	20	
	2	7	4	4	1	3	19	21	16	17	
	3	8	4	4	1	3	19	17	16	16	
	4	19	4	3	1	3	15	15	13	13	
	5	23	4	2	1	3	9	10	13	11	
	6	24	4	2	1	3	7	7	10	11	
24	1	5	2	3	2	5	19	20	13	25	
	2	11	1	2	2	4	19	18	13	22	
	3	12	1	2	2	3	19	16	12	20	
	4	20	1	2	1	2	19	15	12	17	
	5	24	1	2	1	2	19	11	10	15	
	6	30	1	2	1	1	19	11	10	14	
25	1	7	4	3	4	5	9	17	27	17	
	2	18	4	2	3	4	7	15	27	14	
	3	19	3	2	3	4	7	14	27	13	
	4	22	3	2	3	3	7	11	27	9	
	5	23	2	1	3	3	5	10	27	7	
	6	25	2	1	3	2	5	8	27	6	
26	1	9	3	5	4	4	25	8	18	28	
	2	11	3	3	4	3	22	8	18	25	
	3	14	3	3	4	3	21	8	17	24	
	4	18	2	2	4	3	18	8	17	23	
	5	19	2	1	4	3	18	7	16	20	
	6	25	1	1	4	3	16	7	16	16	
27	1	2	3	2	5	3	26	18	12	24	
	2	3	2	1	4	3	23	16	12	24	
	3	8	2	1	3	3	14	13	12	24	
	4	14	1	1	3	3	12	13	12	23	
	5	23	1	1	2	3	7	8	12	22	
	6	29	1	1	1	3	2	6	12	22	
28	1	5	3	1	5	2	23	29	18	28	
	2	8	3	1	4	2	23	29	15	24	
	3	16	3	1	4	2	19	29	13	23	
	4	17	3	1	3	2	17	28	11	21	
	5	19	3	1	3	1	16	28	7	19	
	6	20	3	1	2	1	13	27	5	17	
29	1	6	4	2	5	1	8	21	15	21	
	2	22	4	2	4	1	7	16	13	19	
	3	27	4	2	4	1	6	15	13	17	
	4	28	4	2	3	1	6	11	12	16	
	5	29	3	2	3	1	6	9	11	15	
	6	30	3	2	2	1	5	5	11	14	
30	1	4	4	4	3	4	24	5	23	24	
	2	8	4	3	3	4	23	5	23	19	
	3	10	4	3	3	4	21	5	22	14	
	4	11	4	2	3	4	19	5	20	13	
	5	16	4	2	3	4	18	5	19	9	
	6	19	4	1	3	4	16	5	19	3	
31	1	1	4	1	4	2	28	23	4	23	
	2	6	4	1	3	2	26	23	4	19	
	3	10	3	1	3	2	25	23	3	18	
	4	14	3	1	2	2	25	23	2	15	
	5	17	2	1	2	2	23	22	2	13	
	6	20	2	1	2	2	20	22	1	11	
32	1	9	2	1	1	2	17	25	16	24	
	2	10	2	1	1	2	14	22	16	22	
	3	11	2	1	1	2	14	19	12	22	
	4	20	2	1	1	2	10	15	11	21	
	5	23	2	1	1	1	8	13	9	21	
	6	30	2	1	1	1	5	11	6	20	
33	1	5	2	4	5	5	23	17	18	14	
	2	6	2	4	4	4	23	16	15	14	
	3	7	2	4	4	3	23	13	14	14	
	4	11	2	3	4	3	23	11	11	13	
	5	21	2	3	4	2	23	9	10	13	
	6	29	2	3	4	1	23	7	9	13	
34	1	4	2	5	4	4	17	20	24	22	
	2	5	2	5	4	3	17	18	23	20	
	3	8	2	5	4	3	17	17	19	15	
	4	15	2	5	4	3	17	16	14	12	
	5	23	2	5	3	3	17	15	12	9	
	6	30	2	5	3	3	17	15	9	8	
35	1	7	5	1	4	2	26	26	17	27	
	2	8	5	1	4	2	18	26	14	23	
	3	9	5	1	4	2	16	25	12	21	
	4	19	5	1	4	2	13	25	11	17	
	5	22	5	1	4	2	8	24	8	14	
	6	23	5	1	4	2	6	24	7	6	
36	1	8	3	5	1	5	14	27	12	25	
	2	12	3	4	1	3	14	24	11	23	
	3	17	3	4	1	3	12	23	11	21	
	4	22	3	3	1	3	11	20	11	15	
	5	23	3	3	1	2	10	19	10	13	
	6	24	3	2	1	1	9	16	9	9	
37	1	7	4	3	1	5	26	18	20	12	
	2	13	3	3	1	4	24	16	19	10	
	3	14	3	3	1	3	24	15	19	9	
	4	22	2	3	1	3	24	9	18	7	
	5	23	2	3	1	2	23	8	16	4	
	6	24	1	3	1	1	22	3	16	3	
38	1	5	4	4	5	2	28	8	20	7	
	2	7	3	3	4	1	27	7	15	5	
	3	12	3	3	4	1	27	6	15	5	
	4	18	2	3	3	1	25	4	8	4	
	5	25	2	2	3	1	24	4	7	2	
	6	26	2	2	3	1	23	3	4	2	
39	1	8	2	4	5	2	21	29	12	19	
	2	9	2	4	4	2	19	25	12	19	
	3	10	2	4	4	2	18	24	12	15	
	4	13	2	4	4	2	16	19	12	10	
	5	15	2	4	4	2	14	18	12	8	
	6	27	2	4	4	2	13	13	12	1	
40	1	1	5	2	5	4	23	23	15	20	
	2	3	4	2	4	4	21	20	15	19	
	3	5	3	2	4	4	21	18	11	18	
	4	17	3	1	4	4	20	12	8	17	
	5	18	2	1	3	4	20	10	4	16	
	6	25	1	1	3	4	19	9	1	16	
41	1	2	4	4	5	2	10	22	24	21	
	2	7	3	4	4	2	9	21	23	20	
	3	12	3	4	4	2	9	20	22	18	
	4	19	3	4	4	2	8	19	22	16	
	5	20	3	4	4	1	7	17	20	12	
	6	26	3	4	4	1	7	15	19	11	
42	1	8	4	3	4	1	18	25	15	28	
	2	13	3	2	4	1	17	23	14	22	
	3	23	3	2	3	1	12	23	12	20	
	4	25	3	2	3	1	12	22	10	17	
	5	26	3	1	2	1	9	21	10	15	
	6	29	3	1	2	1	5	20	9	12	
43	1	10	5	4	3	4	11	29	24	19	
	2	11	4	3	2	3	11	28	20	19	
	3	17	4	3	2	3	9	28	17	18	
	4	19	4	3	2	2	7	28	12	18	
	5	20	3	1	2	2	5	28	5	17	
	6	29	3	1	2	1	2	28	5	17	
44	1	6	4	4	5	5	13	24	19	29	
	2	8	3	3	4	4	10	24	18	27	
	3	20	3	3	4	3	9	24	14	23	
	4	21	2	2	4	3	8	23	14	20	
	5	27	2	2	4	2	5	23	12	18	
	6	30	2	2	4	1	3	22	10	16	
45	1	8	4	4	5	4	14	18	10	27	
	2	10	4	3	5	4	12	18	10	27	
	3	15	4	3	5	4	11	13	9	27	
	4	16	4	3	5	4	8	12	8	27	
	5	17	4	3	5	4	8	8	6	27	
	6	29	4	3	5	4	6	8	6	27	
46	1	1	1	5	4	2	12	19	29	27	
	2	8	1	4	4	2	10	19	28	24	
	3	9	1	3	4	2	6	18	28	22	
	4	21	1	3	4	1	5	18	28	21	
	5	27	1	2	4	1	4	18	28	18	
	6	29	1	1	4	1	1	17	28	15	
47	1	4	3	2	3	4	19	26	20	11	
	2	8	2	2	2	3	18	24	19	10	
	3	13	2	2	2	3	16	21	16	10	
	4	19	2	2	2	2	16	20	15	10	
	5	24	2	2	1	2	12	19	12	9	
	6	26	2	2	1	2	11	17	12	9	
48	1	2	4	5	3	1	26	17	17	16	
	2	3	4	4	3	1	24	16	16	16	
	3	6	4	4	3	1	19	13	16	15	
	4	16	3	3	3	1	14	13	15	15	
	5	19	2	3	3	1	13	10	13	15	
	6	29	2	3	3	1	7	8	12	14	
49	1	1	2	4	1	5	27	14	4	24	
	2	4	1	4	1	4	24	12	4	23	
	3	6	1	4	1	4	24	11	3	14	
	4	12	1	3	1	3	18	8	3	13	
	5	14	1	3	1	3	18	6	2	7	
	6	26	1	3	1	3	13	5	2	3	
50	1	4	5	1	3	1	24	8	27	26	
	2	5	4	1	3	1	24	8	22	21	
	3	10	3	1	3	1	24	8	21	17	
	4	11	3	1	3	1	24	8	19	16	
	5	13	3	1	3	1	24	7	15	14	
	6	19	2	1	3	1	24	7	12	9	
51	1	2	3	5	4	4	29	17	26	26	
	2	13	3	5	3	3	25	16	23	26	
	3	16	3	5	3	3	21	16	19	26	
	4	17	3	5	2	3	18	15	14	26	
	5	21	3	5	2	2	14	15	7	26	
	6	30	3	5	2	2	14	14	5	26	
52	1	4	5	4	3	2	28	27	22	6	
	2	5	4	4	2	1	28	22	17	5	
	3	12	4	4	2	1	28	18	16	4	
	4	18	4	4	2	1	28	16	13	3	
	5	20	4	3	1	1	28	12	8	2	
	6	24	4	3	1	1	28	9	4	2	
53	1	5	4	5	4	3	18	10	26	17	
	2	13	4	5	4	3	16	9	23	16	
	3	14	4	5	4	3	16	7	22	14	
	4	15	3	5	4	3	15	6	19	14	
	5	18	3	5	4	3	15	5	17	13	
	6	22	3	5	4	3	14	5	15	12	
54	1	6	5	1	1	4	23	25	18	3	
	2	9	4	1	1	4	23	23	18	3	
	3	10	4	1	1	4	23	18	18	3	
	4	16	3	1	1	4	23	16	18	3	
	5	22	2	1	1	4	23	13	18	3	
	6	28	2	1	1	4	23	9	18	3	
55	1	1	5	3	3	4	11	4	26	27	
	2	2	4	2	3	4	11	4	21	23	
	3	3	4	2	3	4	11	4	18	18	
	4	11	3	2	3	3	11	3	13	16	
	5	20	3	2	3	3	11	3	12	11	
	6	25	2	2	3	3	11	2	6	9	
56	1	8	4	4	5	3	22	25	23	27	
	2	11	3	4	4	2	20	25	22	27	
	3	12	3	4	4	2	15	25	22	27	
	4	19	3	4	3	2	13	24	22	27	
	5	28	3	3	3	2	11	23	22	27	
	6	30	3	3	3	2	7	23	22	27	
57	1	1	2	3	4	5	17	23	26	6	
	2	2	1	3	3	4	16	20	25	5	
	3	10	1	3	3	4	16	18	19	5	
	4	12	1	3	2	4	14	16	14	5	
	5	17	1	3	2	4	12	13	12	4	
	6	20	1	3	2	4	12	10	6	4	
58	1	5	4	3	1	5	17	21	23	12	
	2	7	4	3	1	5	17	17	22	11	
	3	15	4	3	1	5	16	12	22	10	
	4	27	4	3	1	5	14	8	21	10	
	5	28	4	2	1	5	13	8	20	7	
	6	29	4	2	1	5	13	2	20	7	
59	1	7	4	2	2	3	11	4	16	29	
	2	10	4	1	2	2	10	4	14	27	
	3	13	4	1	2	2	10	4	11	27	
	4	17	4	1	2	2	7	4	10	26	
	5	19	4	1	2	1	6	4	9	24	
	6	26	4	1	2	1	4	4	6	24	
60	1	7	4	5	5	2	17	13	17	4	
	2	8	3	5	4	2	16	10	15	4	
	3	9	3	5	4	2	15	9	15	4	
	4	10	2	5	3	2	15	6	14	4	
	5	13	2	5	3	2	14	5	13	4	
	6	19	1	5	3	2	14	2	13	4	
61	1	1	1	4	3	3	14	17	25	17	
	2	2	1	3	3	2	14	17	25	14	
	3	5	1	3	2	2	13	17	24	13	
	4	6	1	3	2	2	13	16	23	10	
	5	18	1	2	1	2	12	16	21	5	
	6	26	1	2	1	2	12	15	21	4	
62	1	8	5	3	4	4	27	25	23	26	
	2	12	5	3	4	4	27	25	19	23	
	3	20	5	3	4	4	27	24	19	20	
	4	21	5	3	4	4	27	22	16	18	
	5	26	5	3	4	3	27	21	11	13	
	6	30	5	3	4	3	27	21	8	12	
63	1	2	5	3	5	2	21	19	26	21	
	2	12	5	3	4	1	21	19	19	20	
	3	20	5	3	3	1	20	19	16	20	
	4	21	5	3	3	1	20	19	14	19	
	5	22	5	3	2	1	19	18	7	18	
	6	28	5	3	1	1	18	18	5	16	
64	1	7	3	3	1	2	27	27	2	15	
	2	8	3	2	1	2	23	22	2	15	
	3	13	3	2	1	2	23	16	2	13	
	4	19	3	1	1	2	19	13	2	12	
	5	25	3	1	1	2	17	9	2	11	
	6	26	3	1	1	2	15	2	2	10	
65	1	6	4	5	1	3	29	5	13	24	
	2	7	4	4	1	3	27	5	13	21	
	3	8	3	4	1	3	25	5	12	16	
	4	9	2	3	1	3	24	5	11	12	
	5	16	1	3	1	3	23	5	10	11	
	6	25	1	2	1	3	20	5	10	8	
66	1	3	1	4	3	3	29	18	28	25	
	2	6	1	3	3	2	28	17	25	21	
	3	9	1	3	3	2	28	17	24	17	
	4	14	1	3	3	2	28	16	24	15	
	5	16	1	3	3	2	28	16	20	14	
	6	30	1	3	3	2	28	16	20	10	
67	1	9	4	4	5	4	12	16	27	28	
	2	10	4	4	4	4	10	14	24	20	
	3	11	4	4	4	4	10	13	18	17	
	4	13	4	4	4	4	8	13	13	15	
	5	14	4	4	3	4	5	12	11	13	
	6	20	4	4	3	4	5	10	5	6	
68	1	6	5	5	5	4	17	19	17	18	
	2	17	4	4	4	4	15	16	16	12	
	3	19	4	4	4	4	14	16	13	11	
	4	22	4	3	4	4	14	13	12	9	
	5	23	3	3	4	4	12	13	9	3	
	6	26	3	3	4	4	12	11	6	3	
69	1	3	1	4	3	3	28	25	21	10	
	2	11	1	3	3	2	25	23	19	10	
	3	21	1	3	3	2	23	23	17	8	
	4	23	1	2	3	2	22	21	16	8	
	5	26	1	2	3	2	22	20	15	7	
	6	30	1	2	3	2	19	20	14	6	
70	1	13	3	3	2	1	25	9	21	28	
	2	14	3	3	2	1	19	8	20	24	
	3	15	2	3	2	1	13	8	15	20	
	4	16	2	3	2	1	11	7	15	19	
	5	23	1	3	1	1	8	4	10	15	
	6	24	1	3	1	1	5	3	9	10	
71	1	2	4	5	4	4	18	14	19	13	
	2	3	3	4	3	4	14	12	14	12	
	3	8	3	4	3	3	13	12	14	10	
	4	10	2	4	2	3	10	10	9	10	
	5	18	2	4	2	2	7	10	4	9	
	6	22	1	4	1	2	4	9	1	8	
72	1	9	3	3	4	1	29	2	26	19	
	2	11	2	3	4	1	22	2	26	17	
	3	18	2	3	3	1	16	2	25	15	
	4	25	1	3	3	1	13	2	23	12	
	5	28	1	3	3	1	8	1	23	8	
	6	30	1	3	2	1	6	1	22	4	
73	1	5	4	4	4	3	26	14	11	28	
	2	8	3	4	3	2	26	13	11	26	
	3	9	3	4	3	2	25	12	11	26	
	4	10	2	4	3	2	23	12	10	24	
	5	18	1	4	2	2	22	12	9	21	
	6	29	1	4	2	2	22	11	9	20	
74	1	1	3	2	4	5	8	21	17	11	
	2	6	3	2	3	3	7	19	15	10	
	3	15	3	2	3	3	7	18	14	9	
	4	18	3	1	3	2	7	17	12	7	
	5	21	3	1	2	2	6	16	8	6	
	6	27	3	1	2	1	6	16	6	4	
75	1	7	1	4	2	3	21	19	7	11	
	2	8	1	3	2	3	20	18	6	10	
	3	15	1	2	2	3	20	18	4	10	
	4	16	1	2	2	3	20	17	4	10	
	5	19	1	2	2	3	20	17	3	10	
	6	20	1	1	2	3	20	17	1	10	
76	1	12	4	4	4	5	28	30	29	8	
	2	20	3	4	4	4	27	22	24	8	
	3	21	3	4	3	4	25	17	22	8	
	4	23	2	4	3	4	25	14	20	7	
	5	24	2	4	3	4	23	9	16	7	
	6	28	2	4	2	4	21	6	14	7	
77	1	5	4	2	2	4	29	16	26	12	
	2	17	4	1	2	4	22	16	24	9	
	3	21	4	1	2	4	18	13	24	9	
	4	26	4	1	2	4	14	7	19	5	
	5	29	4	1	2	4	13	7	17	3	
	6	30	4	1	2	4	9	2	17	1	
78	1	8	3	4	4	3	27	13	24	25	
	2	15	3	4	4	3	24	12	20	23	
	3	20	3	4	4	3	24	11	16	20	
	4	24	3	3	3	3	21	10	13	18	
	5	28	2	3	3	3	20	9	9	17	
	6	30	2	2	2	3	20	8	6	16	
79	1	1	5	4	3	3	28	13	21	15	
	2	14	5	3	3	3	28	13	19	14	
	3	15	5	3	2	3	26	13	18	13	
	4	23	5	3	2	3	26	13	18	12	
	5	26	5	3	1	2	24	13	16	12	
	6	28	5	3	1	2	24	13	16	10	
80	1	1	4	2	4	2	22	19	13	6	
	2	10	4	2	4	2	20	15	12	6	
	3	11	4	2	4	2	16	14	12	6	
	4	14	4	2	3	2	10	11	10	6	
	5	17	4	1	3	2	9	6	9	6	
	6	29	4	1	2	2	5	5	9	6	
81	1	15	5	4	2	4	11	18	18	26	
	2	17	4	4	2	4	10	15	16	23	
	3	20	4	4	2	4	7	12	13	21	
	4	22	4	4	2	4	7	9	12	21	
	5	23	4	4	1	4	5	8	9	19	
	6	24	4	4	1	4	2	3	8	16	
82	1	7	1	5	4	4	12	18	14	15	
	2	8	1	4	4	4	9	18	11	14	
	3	11	1	3	4	4	7	18	10	14	
	4	12	1	3	3	4	6	18	8	12	
	5	20	1	3	2	4	4	17	7	12	
	6	22	1	2	2	4	3	17	6	10	
83	1	3	4	2	4	4	15	20	17	15	
	2	6	4	2	4	4	13	19	15	13	
	3	16	4	2	4	4	12	19	12	12	
	4	25	3	1	4	4	12	19	10	10	
	5	28	3	1	3	4	11	19	8	9	
	6	30	2	1	3	4	10	19	7	9	
84	1	8	4	2	3	3	15	20	11	14	
	2	10	4	2	2	3	10	16	10	14	
	3	14	4	2	2	3	8	14	9	14	
	4	19	4	2	1	2	6	10	9	13	
	5	27	4	2	1	2	3	7	7	12	
	6	28	4	2	1	1	3	5	7	12	
85	1	3	3	5	5	5	29	21	10	9	
	2	4	2	4	5	4	21	17	8	7	
	3	11	2	4	5	4	18	15	6	7	
	4	28	2	4	5	4	11	13	5	5	
	5	29	2	4	5	4	6	5	2	4	
	6	30	2	4	5	4	4	5	2	3	
86	1	9	4	1	5	4	27	13	28	13	
	2	13	4	1	5	3	21	12	23	12	
	3	22	4	1	5	3	19	12	20	10	
	4	25	4	1	5	3	13	12	17	7	
	5	28	3	1	5	3	7	11	16	6	
	6	29	3	1	5	3	5	11	12	3	
87	1	2	4	5	5	4	15	24	24	23	
	2	3	4	4	5	4	15	22	22	23	
	3	11	4	4	5	4	14	21	20	23	
	4	20	3	3	5	4	12	21	20	23	
	5	21	3	3	5	4	11	20	18	22	
	6	23	3	2	5	4	10	19	17	22	
88	1	2	4	3	1	3	21	13	25	25	
	2	3	3	3	1	3	19	13	24	23	
	3	6	3	3	1	3	19	11	21	19	
	4	7	3	3	1	3	17	11	16	17	
	5	17	2	2	1	2	17	9	15	9	
	6	23	2	2	1	2	16	9	12	8	
89	1	7	2	5	4	1	22	6	5	15	
	2	8	2	4	3	1	17	5	4	12	
	3	9	2	3	3	1	16	5	3	12	
	4	10	1	3	3	1	13	4	3	11	
	5	27	1	2	2	1	7	2	3	7	
	6	28	1	2	2	1	6	2	2	7	
90	1	1	4	4	5	4	24	25	16	14	
	2	3	4	3	5	4	24	20	13	14	
	3	9	3	3	5	3	24	18	12	11	
	4	20	3	3	5	3	24	15	11	11	
	5	26	1	3	5	2	24	10	9	9	
	6	30	1	3	5	1	24	6	8	7	
91	1	2	4	4	4	1	11	27	16	14	
	2	14	3	3	3	1	9	26	16	13	
	3	18	3	3	3	1	8	26	14	12	
	4	20	3	2	3	1	6	26	11	9	
	5	24	3	2	3	1	4	26	11	8	
	6	25	3	2	3	1	3	26	9	6	
92	1	1	3	4	3	4	15	26	21	14	
	2	5	2	3	3	4	11	24	19	13	
	3	10	2	3	3	4	10	20	15	10	
	4	11	2	3	3	4	7	18	11	8	
	5	17	2	2	3	4	6	14	8	7	
	6	27	2	2	3	4	5	12	7	3	
93	1	6	4	4	4	3	27	21	16	15	
	2	13	3	4	4	3	26	21	14	13	
	3	16	3	4	4	2	25	21	12	10	
	4	22	2	4	4	2	24	21	8	9	
	5	23	2	4	3	2	21	21	8	7	
	6	25	2	4	3	1	20	21	5	5	
94	1	12	5	4	3	3	6	28	28	13	
	2	14	4	3	2	3	5	27	27	13	
	3	15	4	3	2	3	5	26	27	13	
	4	16	4	2	1	3	4	25	27	13	
	5	20	4	2	1	3	4	24	26	12	
	6	30	4	2	1	3	4	24	26	11	
95	1	2	2	3	2	3	14	19	22	29	
	2	12	2	3	2	3	13	17	18	28	
	3	16	2	3	2	3	11	16	17	27	
	4	17	2	3	2	3	7	14	16	27	
	5	19	1	3	2	3	5	13	14	26	
	6	28	1	3	2	3	1	10	11	25	
96	1	11	5	4	4	5	22	18	13	8	
	2	15	4	4	4	5	21	14	13	8	
	3	18	3	3	3	5	20	11	10	6	
	4	19	3	2	2	5	19	9	9	5	
	5	20	2	2	1	5	19	6	6	4	
	6	26	2	1	1	5	18	3	5	3	
97	1	4	3	3	5	5	14	18	23	25	
	2	13	3	3	4	4	11	17	18	23	
	3	14	3	3	4	4	11	16	16	21	
	4	16	3	3	4	4	8	14	13	20	
	5	25	2	3	4	4	8	12	8	17	
	6	29	2	3	4	4	7	9	8	17	
98	1	11	1	4	2	3	19	4	20	28	
	2	12	1	3	2	3	19	4	19	28	
	3	13	1	3	2	3	19	4	17	28	
	4	24	1	2	2	3	18	3	17	28	
	5	26	1	2	2	3	18	3	16	28	
	6	27	1	1	2	3	17	2	14	28	
99	1	6	3	3	4	5	11	25	13	12	
	2	13	3	3	4	4	11	23	10	10	
	3	14	3	3	4	4	11	22	9	9	
	4	23	2	3	3	4	11	21	7	7	
	5	25	2	3	3	4	10	20	7	6	
	6	27	2	3	2	4	10	18	4	4	
100	1	7	2	4	4	5	15	17	25	26	
	2	10	2	3	4	4	13	17	24	26	
	3	13	2	3	4	4	11	15	24	25	
	4	21	2	2	4	4	9	12	24	24	
	5	22	2	2	4	3	6	12	24	22	
	6	25	2	1	4	3	5	10	24	22	
101	1	6	2	4	5	2	21	22	8	26	
	2	9	2	4	4	1	16	22	8	26	
	3	17	2	4	3	1	15	22	6	26	
	4	19	2	4	3	1	9	22	6	26	
	5	20	1	4	1	1	7	22	5	26	
	6	21	1	4	1	1	3	22	4	26	
102	1	0	0	0	0	0	0	0	0	0	
************************************************************************

 RESOURCE AVAILABILITIES 
	R 1	R 2	R 3	R 4	N 1	N 2	N 3	N 4
	33	37	40	38	1394	1334	1227	1277

************************************************************************
